NAME: tsp_494
COMMENT: Random TSP instance
TYPE: TSP
DIMENSION: 50
EDGE_WEIGHT_TYPE: EUC_2D
NODE_COORD_SECTION
1 645 572
2 979 819
3 6 852
4 117 683
5 772 57
6 708 247
7 410 8
8 581 960
9 980 83
10 167 747
11 17 21
12 741 517
13 162 621
14 606 692
15 811 955
16 943 673
17 941 600
18 332 880
19 495 138
20 536 552
21 105 268
22 958 586
23 391 890
24 779 768
25 851 430
26 393 80
27 777 158
28 284 995
29 626 726
30 257 113
31 52 155
32 8 548
33 875 644
34 670 384
35 167 155
36 321 825
37 296 967
38 659 572
39 387 279
40 601 293
41 848 207
42 829 335
43 646 378
44 384 156
45 221 941
46 318 889
47 382 959
48 975 419
49 873 491
50 516 640
